17	4	3
40	25	25	19	49	19	25	
0	0	0	0	0	10	2	6	7	6	9	3	2	3	4
4	4	8	0	0	7	2	2	5	8	7	3	5	7	16
1	5	0	0	5	5	1	5	1	8	6	2	6	14
5	4	0	0	3	2	6	4	5	2	2	2	8	17
9	0	3	0	3	10	9	9	5	2	2	2	15	17
250	0	4	3	0	9	2	4	5	8	9	3	10	11	17
150	9	0	2	2	3	5	1	4	10	8	1	17
25	0	4	0	0	10	5	8	5	5	6	3	9	11	17
225	9	5	0	0	1	7	2	4	2	3	1	17
50	0	10	7	0	6	1	2	5	6	4	1	17
200	0	0	7	3	6	5	5	10	9	3	3	12	13	17
200	0	5	10	0	9	1	8	9	5	7	1	17
8	0	0	0	4	6	5	1	4	10	6	1	17
2	4	10	0	7	10	10	2	1	4	3	1	17
2	8	0	3	0	4	9	3	6	3	8	2	17	17
10	3	2	4	5	10	9	2	5	8	10	1	17
0	0	0	0	0	7	7	1	5	5	6	0
